% Logging successfully configured
%%%mzn-stat: initTime=0.020597567
%%%mzn-stat: objective=393
%%%mzn-stat: nodes=9466
%%%mzn-stat: restarts=0
%%%mzn-stat: peakDepth=614
%%%mzn-stat: solveTime=0.583297461
%%%mzn-stat: variables=1086
%%%mzn-stat: propagators=804
%%%mzn-stat: failures=4262
%%%mzn-stat: propagations=95805
%%%mzn-stat: nogoods=4262
%%%mzn-stat: numAtomicConstraintsPropagated=0
%%%mzn-stat: allDifferentNumber1TotalHallSetSize=76643
%%%mzn-stat: allDifferentNumber1NumberOfConflicts=4081
%%%mzn-stat: allDifferentNumber1MaxHallSetSize=44
%%%mzn-stat: allDifferentNumber1PropagationsTotal=17872
%%%mzn-stat: allDifferentNumber1PropagationsThatFoundConflict=4081
%%%mzn-stat: circuitNumber2PropagationsThatFoundConflict=24
%%%mzn-stat: circuitNumber2TotalFixedEdgesAtConflict=1032
%%%mzn-stat: circuitNumber2NumberOfConflicts=24
%%%mzn-stat: circuitNumber2PropagationsThatPruned=284
%%%mzn-stat: circuitNumber2PropagationsTotal=9461
%%%mzn-stat: AverageConflictSize=18.586813702487095
%%%mzn-stat: NumUnitNogoodsLearned=0
%%%mzn-stat: AverageLearnedNogoodLength=28.574847489441577
%%%mzn-stat: AverageBacktrackAmount=0
%%%mzn-stat: AverageLbd=26.881511027686532
%%%mzn-stat: 2AutonomousSearchNumBackupCalled=570
%%%mzn-stat: 2AutonomousSearchNumPredicatesRemoved=0
%%%mzn-stat: 2AutonomousSearchNumCalls=571
%%%mzn-stat: 2AutonomousSearchNumPredicatesAdded=879
%%%mzn-stat: 2AutonomousSearchAverageSizeOfHeap=1.5394045534150613
%%%mzn-stat: 2AutonomousSearchNumAssignedPredicatesEncountered=879
%%%mzn-stat-end
maxleg = 393;
succ = array1d(1..50,[2, 11, 5, 7, 9, 3, 13, 6, 12, 17, 14, 20, 16, 26, 1, 19, 18, 8, 22, 15, 4, 24, 21, 30, 10, 36, 23, 25, 32, 31, 41, 28, 37, 39, 27, 48, 29, 45, 40, 42, 33, 38, 34, 46, 50, 49, 43, 44, 47, 35]);
% time elapsed: 2.52 s
----------
%%%mzn-stat: initTime=0.020597567
%%%mzn-stat: objective=384
%%%mzn-stat: nodes=10395
%%%mzn-stat: restarts=0
%%%mzn-stat: peakDepth=614
%%%mzn-stat: solveTime=0.636364132
%%%mzn-stat: variables=1086
%%%mzn-stat: propagators=804
%%%mzn-stat: failures=4561
%%%mzn-stat: propagations=103659
%%%mzn-stat: nogoods=4561
%%%mzn-stat: numAtomicConstraintsPropagated=0
%%%mzn-stat: allDifferentNumber1TotalHallSetSize=78233
%%%mzn-stat: allDifferentNumber1NumberOfConflicts=4326
%%%mzn-stat: allDifferentNumber1MaxHallSetSize=44
%%%mzn-stat: allDifferentNumber1PropagationsTotal=18872
%%%mzn-stat: allDifferentNumber1PropagationsThatFoundConflict=4326
%%%mzn-stat: circuitNumber2PropagationsThatFoundConflict=42
%%%mzn-stat: circuitNumber2TotalFixedEdgesAtConflict=1860
%%%mzn-stat: circuitNumber2NumberOfConflicts=42
%%%mzn-stat: circuitNumber2PropagationsThatPruned=354
%%%mzn-stat: circuitNumber2PropagationsTotal=9948
%%%mzn-stat: AverageConflictSize=18.17057662793247
%%%mzn-stat: NumUnitNogoodsLearned=0
%%%mzn-stat: AverageLearnedNogoodLength=29.321639991229993
%%%mzn-stat: AverageBacktrackAmount=0
%%%mzn-stat: AverageLbd=27.403858802894103
%%%mzn-stat: 2AutonomousSearchNumBackupCalled=1120
%%%mzn-stat: 2AutonomousSearchNumPredicatesRemoved=0
%%%mzn-stat: 2AutonomousSearchNumCalls=1122
%%%mzn-stat: 2AutonomousSearchNumPredicatesAdded=1341
%%%mzn-stat: 2AutonomousSearchAverageSizeOfHeap=1.6853832442067735
%%%mzn-stat: 2AutonomousSearchNumAssignedPredicatesEncountered=1891
%%%mzn-stat-end
maxleg = 384;
succ = array1d(1..50,[2, 11, 5, 7, 9, 3, 13, 6, 12, 17, 14, 20, 16, 26, 1, 19, 18, 8, 22, 15, 4, 24, 21, 30, 10, 36, 35, 25, 32, 31, 37, 28, 27, 39, 23, 48, 29, 45, 40, 42, 33, 38, 34, 46, 50, 49, 43, 44, 47, 41]);
% time elapsed: 2.56 s
----------
%%%mzn-stat: initTime=0.020597567
%%%mzn-stat: objective=378
%%%mzn-stat: nodes=12223
%%%mzn-stat: restarts=0
%%%mzn-stat: peakDepth=614
%%%mzn-stat: solveTime=0.706714093
%%%mzn-stat: variables=1086
%%%mzn-stat: propagators=804
%%%mzn-stat: failures=4978
%%%mzn-stat: propagations=119734
%%%mzn-stat: nogoods=4978
%%%mzn-stat: numAtomicConstraintsPropagated=0
%%%mzn-stat: allDifferentNumber1TotalHallSetSize=79879
%%%mzn-stat: allDifferentNumber1NumberOfConflicts=4653
%%%mzn-stat: allDifferentNumber1MaxHallSetSize=44
%%%mzn-stat: allDifferentNumber1PropagationsTotal=21300
%%%mzn-stat: allDifferentNumber1PropagationsThatFoundConflict=4653
%%%mzn-stat: circuitNumber2PropagationsThatFoundConflict=102
%%%mzn-stat: circuitNumber2TotalFixedEdgesAtConflict=4691
%%%mzn-stat: circuitNumber2NumberOfConflicts=102
%%%mzn-stat: circuitNumber2PropagationsThatPruned=499
%%%mzn-stat: circuitNumber2PropagationsTotal=11407
%%%mzn-stat: AverageConflictSize=17.37826436319807
%%%mzn-stat: NumUnitNogoodsLearned=0
%%%mzn-stat: AverageLearnedNogoodLength=28.947770188830855
%%%mzn-stat: AverageBacktrackAmount=0
%%%mzn-stat: AverageLbd=26.856568903173965
%%%mzn-stat: 2AutonomousSearchNumBackupCalled=1654
%%%mzn-stat: 2AutonomousSearchNumPredicatesRemoved=0
%%%mzn-stat: 2AutonomousSearchNumCalls=1657
%%%mzn-stat: 2AutonomousSearchNumPredicatesAdded=1871
%%%mzn-stat: 2AutonomousSearchAverageSizeOfHeap=1.7942063971031985
%%%mzn-stat: 2AutonomousSearchNumAssignedPredicatesEncountered=2973
%%%mzn-stat-end
maxleg = 378;
succ = array1d(1..50,[2, 11, 5, 7, 12, 3, 13, 6, 14, 17, 15, 9, 16, 20, 21, 19, 18, 8, 22, 26, 4, 24, 1, 30, 10, 36, 35, 25, 32, 31, 37, 28, 27, 39, 23, 48, 29, 45, 40, 42, 33, 38, 34, 46, 50, 49, 43, 44, 47, 41]);
% time elapsed: 2.63 s
----------
%%%mzn-stat: initTime=0.020597567
%%%mzn-stat: objective=364
%%%mzn-stat: nodes=13387
%%%mzn-stat: restarts=0
%%%mzn-stat: peakDepth=614
%%%mzn-stat: solveTime=0.750729231
%%%mzn-stat: variables=1086
%%%mzn-stat: propagators=804
%%%mzn-stat: failures=5193
%%%mzn-stat: propagations=129287
%%%mzn-stat: nogoods=5193
%%%mzn-stat: numAtomicConstraintsPropagated=0
%%%mzn-stat: allDifferentNumber1TotalHallSetSize=80661
%%%mzn-stat: allDifferentNumber1NumberOfConflicts=4804
%%%mzn-stat: allDifferentNumber1MaxHallSetSize=44
%%%mzn-stat: allDifferentNumber1PropagationsTotal=22510
%%%mzn-stat: allDifferentNumber1PropagationsThatFoundConflict=4804
%%%mzn-stat: circuitNumber2PropagationsThatFoundConflict=141
%%%mzn-stat: circuitNumber2TotalFixedEdgesAtConflict=6544
%%%mzn-stat: circuitNumber2NumberOfConflicts=141
%%%mzn-stat: circuitNumber2PropagationsThatPruned=585
%%%mzn-stat: circuitNumber2PropagationsTotal=12173
%%%mzn-stat: AverageConflictSize=17.120739456961292
%%%mzn-stat: NumUnitNogoodsLearned=0
%%%mzn-stat: AverageLearnedNogoodLength=29.18062776814943
%%%mzn-stat: AverageBacktrackAmount=0
%%%mzn-stat: AverageLbd=26.96630078952436
%%%mzn-stat: 2AutonomousSearchNumBackupCalled=2186
%%%mzn-stat: 2AutonomousSearchNumPredicatesRemoved=0
%%%mzn-stat: 2AutonomousSearchNumCalls=2190
%%%mzn-stat: 2AutonomousSearchNumPredicatesAdded=2403
%%%mzn-stat: 2AutonomousSearchAverageSizeOfHeap=1.8694063926940638
%%%mzn-stat: 2AutonomousSearchNumAssignedPredicatesEncountered=4094
%%%mzn-stat-end
maxleg = 364;
succ = array1d(1..50,[2, 11, 5, 7, 12, 3, 16, 6, 14, 17, 15, 9, 4, 20, 21, 19, 18, 8, 22, 26, 13, 24, 1, 30, 10, 36, 35, 25, 32, 31, 37, 28, 27, 39, 23, 48, 29, 45, 40, 42, 33, 38, 34, 46, 50, 49, 43, 44, 47, 41]);
% time elapsed: 2.68 s
----------
%%%mzn-stat: initTime=0.020597567
%%%mzn-stat: objective=353
%%%mzn-stat: nodes=14487
%%%mzn-stat: restarts=0
%%%mzn-stat: peakDepth=614
%%%mzn-stat: solveTime=0.808424148
%%%mzn-stat: variables=1086
%%%mzn-stat: propagators=804
%%%mzn-stat: failures=5566
%%%mzn-stat: propagations=137438
%%%mzn-stat: nogoods=5566
%%%mzn-stat: numAtomicConstraintsPropagated=0
%%%mzn-stat: allDifferentNumber1TotalHallSetSize=90803
%%%mzn-stat: allDifferentNumber1NumberOfConflicts=5175
%%%mzn-stat: allDifferentNumber1MaxHallSetSize=44
%%%mzn-stat: allDifferentNumber1PropagationsTotal=23917
%%%mzn-stat: allDifferentNumber1PropagationsThatFoundConflict=5175
%%%mzn-stat: circuitNumber2PropagationsThatFoundConflict=142
%%%mzn-stat: circuitNumber2TotalFixedEdgesAtConflict=6592
%%%mzn-stat: circuitNumber2NumberOfConflicts=142
%%%mzn-stat: circuitNumber2PropagationsThatPruned=586
%%%mzn-stat: circuitNumber2PropagationsTotal=12974
%%%mzn-stat: AverageConflictSize=19.269493352497307
%%%mzn-stat: NumUnitNogoodsLearned=0
%%%mzn-stat: AverageLearnedNogoodLength=30.759791591807403
%%%mzn-stat: AverageBacktrackAmount=0
%%%mzn-stat: AverageLbd=26.511318720804887
%%%mzn-stat: 2AutonomousSearchNumBackupCalled=2708
%%%mzn-stat: 2AutonomousSearchNumPredicatesRemoved=0
%%%mzn-stat: 2AutonomousSearchNumCalls=2713
%%%mzn-stat: 2AutonomousSearchNumPredicatesAdded=2898
%%%mzn-stat: 2AutonomousSearchAverageSizeOfHeap=2.0493918171765575
%%%mzn-stat: 2AutonomousSearchNumAssignedPredicatesEncountered=5560
%%%mzn-stat-end
maxleg = 353;
succ = array1d(1..50,[2, 11, 5, 7, 12, 3, 16, 6, 14, 17, 15, 9, 4, 20, 21, 19, 18, 8, 22, 26, 23, 24, 41, 30, 10, 36, 35, 25, 13, 31, 37, 28, 27, 29, 1, 48, 33, 42, 32, 39, 45, 40, 34, 46, 50, 49, 43, 44, 47, 38]);
% time elapsed: 2.73 s
----------
%%%mzn-stat: initTime=0.020597567
%%%mzn-stat: objective=348
%%%mzn-stat: nodes=15171
%%%mzn-stat: restarts=0
%%%mzn-stat: peakDepth=614
%%%mzn-stat: solveTime=0.811854762
%%%mzn-stat: variables=1086
%%%mzn-stat: propagators=804
%%%mzn-stat: failures=5581
%%%mzn-stat: propagations=139753
%%%mzn-stat: nogoods=5581
%%%mzn-stat: numAtomicConstraintsPropagated=0
%%%mzn-stat: allDifferentNumber1TotalHallSetSize=90855
%%%mzn-stat: allDifferentNumber1NumberOfConflicts=5190
%%%mzn-stat: allDifferentNumber1MaxHallSetSize=44
%%%mzn-stat: allDifferentNumber1PropagationsTotal=24107
%%%mzn-stat: allDifferentNumber1PropagationsThatFoundConflict=5190
%%%mzn-stat: circuitNumber2PropagationsThatFoundConflict=142
%%%mzn-stat: circuitNumber2TotalFixedEdgesAtConflict=6592
%%%mzn-stat: circuitNumber2NumberOfConflicts=142
%%%mzn-stat: circuitNumber2PropagationsThatPruned=587
%%%mzn-stat: circuitNumber2PropagationsTotal=13117
%%%mzn-stat: AverageConflictSize=19.22917039956997
%%%mzn-stat: NumUnitNogoodsLearned=0
%%%mzn-stat: AverageLearnedNogoodLength=30.6898405303709
%%%mzn-stat: AverageBacktrackAmount=0
%%%mzn-stat: AverageLbd=26.451711162874037
%%%mzn-stat: 2AutonomousSearchNumBackupCalled=3240
%%%mzn-stat: 2AutonomousSearchNumPredicatesRemoved=0
%%%mzn-stat: 2AutonomousSearchNumCalls=3246
%%%mzn-stat: 2AutonomousSearchNumPredicatesAdded=2967
%%%mzn-stat: 2AutonomousSearchAverageSizeOfHeap=2.1660505237215033
%%%mzn-stat: 2AutonomousSearchNumAssignedPredicatesEncountered=7031
%%%mzn-stat-end
maxleg = 348;
succ = array1d(1..50,[2, 11, 5, 7, 12, 3, 16, 6, 14, 17, 15, 9, 4, 20, 21, 19, 18, 8, 22, 27, 23, 24, 33, 30, 10, 36, 35, 25, 13, 31, 38, 28, 37, 29, 1, 48, 41, 42, 32, 39, 50, 40, 34, 46, 26, 49, 43, 44, 47, 45]);
% time elapsed: 2.75 s
----------
%%%mzn-stat: initTime=0.020597567
%%%mzn-stat: objective=347
%%%mzn-stat: nodes=15974
%%%mzn-stat: restarts=0
%%%mzn-stat: peakDepth=614
%%%mzn-stat: solveTime=0.818112043
%%%mzn-stat: variables=1086
%%%mzn-stat: propagators=804
%%%mzn-stat: failures=5604
%%%mzn-stat: propagations=143273
%%%mzn-stat: nogoods=5604
%%%mzn-stat: numAtomicConstraintsPropagated=0
%%%mzn-stat: allDifferentNumber1TotalHallSetSize=91009
%%%mzn-stat: allDifferentNumber1NumberOfConflicts=5213
%%%mzn-stat: allDifferentNumber1MaxHallSetSize=44
%%%mzn-stat: allDifferentNumber1PropagationsTotal=24526
%%%mzn-stat: allDifferentNumber1PropagationsThatFoundConflict=5213
%%%mzn-stat: circuitNumber2PropagationsThatFoundConflict=142
%%%mzn-stat: circuitNumber2TotalFixedEdgesAtConflict=6592
%%%mzn-stat: circuitNumber2NumberOfConflicts=142
%%%mzn-stat: circuitNumber2PropagationsThatPruned=601
%%%mzn-stat: circuitNumber2PropagationsTotal=13405
%%%mzn-stat: AverageConflictSize=19.193433261955747
%%%mzn-stat: NumUnitNogoodsLearned=0
%%%mzn-stat: AverageLearnedNogoodLength=30.607423269093506
%%%mzn-stat: AverageBacktrackAmount=0
%%%mzn-stat: AverageLbd=26.367773019271947
%%%mzn-stat: 2AutonomousSearchNumBackupCalled=3751
%%%mzn-stat: 2AutonomousSearchNumPredicatesRemoved=0
%%%mzn-stat: 2AutonomousSearchNumCalls=3758
%%%mzn-stat: 2AutonomousSearchNumPredicatesAdded=3131
%%%mzn-stat: 2AutonomousSearchAverageSizeOfHeap=2.2780734433209155
%%%mzn-stat: 2AutonomousSearchNumAssignedPredicatesEncountered=8561
%%%mzn-stat-end
maxleg = 347;
succ = array1d(1..50,[2, 11, 5, 7, 12, 3, 16, 6, 14, 17, 15, 9, 4, 26, 20, 19, 18, 8, 22, 27, 23, 24, 35, 21, 10, 36, 33, 25, 13, 31, 37, 28, 30, 29, 1, 48, 41, 42, 32, 39, 45, 40, 34, 46, 50, 49, 43, 44, 47, 38]);
% time elapsed: 2.75 s
----------
%%%mzn-stat: initTime=0.020597567
%%%mzn-stat: objective=314
%%%mzn-stat: nodes=16603
%%%mzn-stat: restarts=0
%%%mzn-stat: peakDepth=614
%%%mzn-stat: solveTime=0.822051063
%%%mzn-stat: variables=1086
%%%mzn-stat: propagators=804
%%%mzn-stat: failures=5618
%%%mzn-stat: propagations=145570
%%%mzn-stat: nogoods=5618
%%%mzn-stat: numAtomicConstraintsPropagated=0
%%%mzn-stat: allDifferentNumber1TotalHallSetSize=91131
%%%mzn-stat: allDifferentNumber1NumberOfConflicts=5227
%%%mzn-stat: allDifferentNumber1MaxHallSetSize=44
%%%mzn-stat: allDifferentNumber1PropagationsTotal=24731
%%%mzn-stat: allDifferentNumber1PropagationsThatFoundConflict=5227
%%%mzn-stat: circuitNumber2PropagationsThatFoundConflict=142
%%%mzn-stat: circuitNumber2TotalFixedEdgesAtConflict=6592
%%%mzn-stat: circuitNumber2NumberOfConflicts=142
%%%mzn-stat: circuitNumber2PropagationsThatPruned=601
%%%mzn-stat: circuitNumber2PropagationsTotal=13543
%%%mzn-stat: AverageConflictSize=19.184051263794945
%%%mzn-stat: NumUnitNogoodsLearned=0
%%%mzn-stat: AverageLearnedNogoodLength=30.56924172303311
%%%mzn-stat: AverageBacktrackAmount=0
%%%mzn-stat: AverageLbd=26.31933072267711
%%%mzn-stat: 2AutonomousSearchNumBackupCalled=4229
%%%mzn-stat: 2AutonomousSearchNumPredicatesRemoved=0
%%%mzn-stat: 2AutonomousSearchNumCalls=4237
%%%mzn-stat: 2AutonomousSearchNumPredicatesAdded=3331
%%%mzn-stat: 2AutonomousSearchAverageSizeOfHeap=2.4059476044371015
%%%mzn-stat: 2AutonomousSearchNumAssignedPredicatesEncountered=10194
%%%mzn-stat-end
maxleg = 314;
succ = array1d(1..50,[2, 11, 5, 7, 12, 3, 16, 6, 14, 17, 15, 26, 4, 20, 21, 19, 18, 8, 22, 27, 23, 24, 33, 9, 10, 36, 35, 25, 13, 31, 37, 28, 30, 29, 1, 48, 41, 42, 32, 39, 45, 40, 34, 46, 50, 49, 43, 44, 47, 38]);
% time elapsed: 2.76 s
----------
%%%mzn-stat: initTime=0.020597567
%%%mzn-stat: objective=313
%%%mzn-stat: nodes=17126
%%%mzn-stat: restarts=0
%%%mzn-stat: peakDepth=614
%%%mzn-stat: solveTime=0.823538601
%%%mzn-stat: variables=1086
%%%mzn-stat: propagators=804
%%%mzn-stat: failures=5620
%%%mzn-stat: propagations=146963
%%%mzn-stat: nogoods=5620
%%%mzn-stat: numAtomicConstraintsPropagated=0
%%%mzn-stat: allDifferentNumber1TotalHallSetSize=91133
%%%mzn-stat: allDifferentNumber1NumberOfConflicts=5228
%%%mzn-stat: allDifferentNumber1MaxHallSetSize=44
%%%mzn-stat: allDifferentNumber1PropagationsTotal=24795
%%%mzn-stat: allDifferentNumber1PropagationsThatFoundConflict=5228
%%%mzn-stat: circuitNumber2PropagationsThatFoundConflict=142
%%%mzn-stat: circuitNumber2TotalFixedEdgesAtConflict=6592
%%%mzn-stat: circuitNumber2NumberOfConflicts=142
%%%mzn-stat: circuitNumber2PropagationsThatPruned=603
%%%mzn-stat: circuitNumber2PropagationsTotal=13587
%%%mzn-stat: AverageConflictSize=19.17846975088968
%%%mzn-stat: NumUnitNogoodsLearned=0
%%%mzn-stat: AverageLearnedNogoodLength=30.560498220640568
%%%mzn-stat: AverageBacktrackAmount=0
%%%mzn-stat: AverageLbd=26.31120996441281
%%%mzn-stat: 2AutonomousSearchNumBackupCalled=4708
%%%mzn-stat: 2AutonomousSearchNumPredicatesRemoved=0
%%%mzn-stat: 2AutonomousSearchNumCalls=4717
%%%mzn-stat: 2AutonomousSearchNumPredicatesAdded=3362
%%%mzn-stat: 2AutonomousSearchAverageSizeOfHeap=2.507313970744117
%%%mzn-stat: 2AutonomousSearchNumAssignedPredicatesEncountered=11827
%%%mzn-stat-end
maxleg = 313;
succ = array1d(1..50,[2, 11, 5, 7, 12, 3, 16, 6, 14, 17, 15, 26, 4, 20, 21, 19, 18, 8, 22, 27, 23, 24, 33, 9, 10, 36, 35, 25, 13, 31, 37, 28, 30, 29, 1, 48, 41, 42, 32, 39, 45, 40, 47, 43, 50, 44, 49, 46, 34, 38]);
% time elapsed: 2.76 s
----------
%%%mzn-stat: initTime=0.020597567
%%%mzn-stat: objective=308
%%%mzn-stat: nodes=17661
%%%mzn-stat: restarts=0
%%%mzn-stat: peakDepth=614
%%%mzn-stat: solveTime=0.825250196
%%%mzn-stat: variables=1086
%%%mzn-stat: propagators=804
%%%mzn-stat: failures=5622
%%%mzn-stat: propagations=148424
%%%mzn-stat: nogoods=5622
%%%mzn-stat: numAtomicConstraintsPropagated=0
%%%mzn-stat: allDifferentNumber1TotalHallSetSize=91139
%%%mzn-stat: allDifferentNumber1NumberOfConflicts=5230
%%%mzn-stat: allDifferentNumber1MaxHallSetSize=44
%%%mzn-stat: allDifferentNumber1PropagationsTotal=24860
%%%mzn-stat: allDifferentNumber1PropagationsThatFoundConflict=5230
%%%mzn-stat: circuitNumber2PropagationsThatFoundConflict=142
%%%mzn-stat: circuitNumber2TotalFixedEdgesAtConflict=6592
%%%mzn-stat: circuitNumber2NumberOfConflicts=142
%%%mzn-stat: circuitNumber2PropagationsThatPruned=606
%%%mzn-stat: circuitNumber2PropagationsTotal=13633
%%%mzn-stat: AverageConflictSize=19.17271433653504
%%%mzn-stat: NumUnitNogoodsLearned=0
%%%mzn-stat: AverageLearnedNogoodLength=30.558875844895056
%%%mzn-stat: AverageBacktrackAmount=0
%%%mzn-stat: AverageLbd=26.30949839914621
%%%mzn-stat: 2AutonomousSearchNumBackupCalled=5198
%%%mzn-stat: 2AutonomousSearchNumPredicatesRemoved=0
%%%mzn-stat: 2AutonomousSearchNumCalls=5208
%%%mzn-stat: 2AutonomousSearchNumPredicatesAdded=3440
%%%mzn-stat: 2AutonomousSearchAverageSizeOfHeap=2.585253456221198
%%%mzn-stat: 2AutonomousSearchNumAssignedPredicatesEncountered=13464
%%%mzn-stat-end
maxleg = 308;
succ = array1d(1..50,[2, 11, 5, 7, 12, 3, 16, 6, 14, 17, 15, 26, 4, 20, 21, 19, 18, 8, 22, 27, 23, 24, 33, 9, 10, 36, 35, 25, 13, 31, 37, 28, 30, 29, 1, 48, 41, 42, 32, 39, 45, 44, 34, 40, 50, 49, 43, 46, 47, 38]);
% time elapsed: 2.76 s
----------
%%%mzn-stat: initTime=0.020597567
%%%mzn-stat: objective=296
%%%mzn-stat: nodes=18175
%%%mzn-stat: restarts=0
%%%mzn-stat: peakDepth=614
%%%mzn-stat: solveTime=0.827042739
%%%mzn-stat: variables=1086
%%%mzn-stat: propagators=804
%%%mzn-stat: failures=5626
%%%mzn-stat: propagations=150054
%%%mzn-stat: nogoods=5626
%%%mzn-stat: numAtomicConstraintsPropagated=0
%%%mzn-stat: allDifferentNumber1TotalHallSetSize=91149
%%%mzn-stat: allDifferentNumber1NumberOfConflicts=5234
%%%mzn-stat: allDifferentNumber1MaxHallSetSize=44
%%%mzn-stat: allDifferentNumber1PropagationsTotal=24945
%%%mzn-stat: allDifferentNumber1PropagationsThatFoundConflict=5234
%%%mzn-stat: circuitNumber2PropagationsThatFoundConflict=142
%%%mzn-stat: circuitNumber2TotalFixedEdgesAtConflict=6592
%%%mzn-stat: circuitNumber2NumberOfConflicts=142
%%%mzn-stat: circuitNumber2PropagationsThatPruned=614
%%%mzn-stat: circuitNumber2PropagationsTotal=13692
%%%mzn-stat: AverageConflictSize=19.161215783860648
%%%mzn-stat: NumUnitNogoodsLearned=0
%%%mzn-stat: AverageLearnedNogoodLength=30.539637397795946
%%%mzn-stat: AverageBacktrackAmount=0
%%%mzn-stat: AverageLbd=26.29257020974049
%%%mzn-stat: 2AutonomousSearchNumBackupCalled=5658
%%%mzn-stat: 2AutonomousSearchNumPredicatesRemoved=0
%%%mzn-stat: 2AutonomousSearchNumCalls=5669
%%%mzn-stat: 2AutonomousSearchNumPredicatesAdded=3470
%%%mzn-stat: 2AutonomousSearchAverageSizeOfHeap=2.663785500088199
%%%mzn-stat: 2AutonomousSearchNumAssignedPredicatesEncountered=15101
%%%mzn-stat-end
maxleg = 296;
succ = array1d(1..50,[2, 11, 5, 7, 12, 3, 16, 6, 14, 17, 15, 26, 4, 20, 21, 19, 18, 8, 22, 27, 23, 24, 33, 9, 10, 36, 35, 25, 13, 31, 37, 28, 30, 29, 1, 48, 41, 46, 32, 39, 45, 44, 34, 43, 50, 49, 40, 42, 47, 38]);
% time elapsed: 2.76 s
----------
%%%mzn-stat: initTime=0.020597567
%%%mzn-stat: objective=277
%%%mzn-stat: nodes=18659
%%%mzn-stat: restarts=0
%%%mzn-stat: peakDepth=614
%%%mzn-stat: solveTime=0.828919133
%%%mzn-stat: variables=1086
%%%mzn-stat: propagators=804
%%%mzn-stat: failures=5627
%%%mzn-stat: propagations=151513
%%%mzn-stat: nogoods=5627
%%%mzn-stat: numAtomicConstraintsPropagated=0
%%%mzn-stat: allDifferentNumber1TotalHallSetSize=91154
%%%mzn-stat: allDifferentNumber1NumberOfConflicts=5235
%%%mzn-stat: allDifferentNumber1MaxHallSetSize=44
%%%mzn-stat: allDifferentNumber1PropagationsTotal=25010
%%%mzn-stat: allDifferentNumber1PropagationsThatFoundConflict=5235
%%%mzn-stat: circuitNumber2PropagationsThatFoundConflict=142
%%%mzn-stat: circuitNumber2TotalFixedEdgesAtConflict=6592
%%%mzn-stat: circuitNumber2NumberOfConflicts=142
%%%mzn-stat: circuitNumber2PropagationsThatPruned=616
%%%mzn-stat: circuitNumber2PropagationsTotal=13735
%%%mzn-stat: AverageConflictSize=19.159587702150347
%%%mzn-stat: NumUnitNogoodsLearned=0
%%%mzn-stat: AverageLearnedNogoodLength=30.535987204549492
%%%mzn-stat: AverageBacktrackAmount=0
%%%mzn-stat: AverageLbd=26.288786209347787
%%%mzn-stat: 2AutonomousSearchNumBackupCalled=6101
%%%mzn-stat: 2AutonomousSearchNumPredicatesRemoved=0
%%%mzn-stat: 2AutonomousSearchNumCalls=6113
%%%mzn-stat: 2AutonomousSearchNumPredicatesAdded=3480
%%%mzn-stat: 2AutonomousSearchAverageSizeOfHeap=2.738099132995256
%%%mzn-stat: 2AutonomousSearchNumAssignedPredicatesEncountered=16738
%%%mzn-stat-end
maxleg = 277;
succ = array1d(1..50,[2, 11, 5, 7, 12, 3, 16, 6, 14, 17, 15, 26, 4, 20, 21, 19, 18, 8, 22, 27, 23, 24, 33, 9, 10, 36, 35, 25, 13, 31, 37, 28, 30, 29, 1, 48, 41, 46, 32, 43, 45, 44, 34, 40, 50, 49, 39, 42, 47, 38]);
% time elapsed: 2.76 s
----------
==========
% time elapsed: 2.76 s
%%%mzn-stat: initTime=0.020597567
%%%mzn-stat: objective=277
%%%mzn-stat: nodes=18659
%%%mzn-stat: restarts=0
%%%mzn-stat: peakDepth=614
%%%mzn-stat: solveTime=0.829188538
%%%mzn-stat: variables=1086
%%%mzn-stat: propagators=804
%%%mzn-stat: failures=5628
%%%mzn-stat: propagations=151759
%%%mzn-stat: nogoods=5628
%%%mzn-stat: numAtomicConstraintsPropagated=0
%%%mzn-stat: allDifferentNumber1TotalHallSetSize=91204
%%%mzn-stat: allDifferentNumber1NumberOfConflicts=5236
%%%mzn-stat: allDifferentNumber1MaxHallSetSize=50
%%%mzn-stat: allDifferentNumber1PropagationsTotal=25012
%%%mzn-stat: allDifferentNumber1PropagationsThatFoundConflict=5236
%%%mzn-stat: circuitNumber2PropagationsThatFoundConflict=142
%%%mzn-stat: circuitNumber2TotalFixedEdgesAtConflict=6592
%%%mzn-stat: circuitNumber2NumberOfConflicts=142
%%%mzn-stat: circuitNumber2PropagationsThatPruned=616
%%%mzn-stat: circuitNumber2PropagationsTotal=13736
%%%mzn-stat: AverageConflictSize=19.16169154228856
%%%mzn-stat: NumUnitNogoodsLearned=1
%%%mzn-stat: AverageLearnedNogoodLength=30.530739161336175
%%%mzn-stat: AverageBacktrackAmount=0
%%%mzn-stat: AverageLbd=26.284292821606254
%%%mzn-stat: 2AutonomousSearchNumBackupCalled=6101
%%%mzn-stat: 2AutonomousSearchNumPredicatesRemoved=0
%%%mzn-stat: 2AutonomousSearchNumCalls=6113
%%%mzn-stat: 2AutonomousSearchNumPredicatesAdded=3766
%%%mzn-stat: 2AutonomousSearchAverageSizeOfHeap=2.738099132995256
%%%mzn-stat: 2AutonomousSearchNumAssignedPredicatesEncountered=16738
%%%mzn-stat-end
